Traveling Salesman Problem/TSP_generados/Aleatorio1621103259_6.tsp
NAME: Aleatorio1621103259_6.tsp
COMMENT: Randomly generated scenario
TYPE: TSP
DIMENSION: 6
EDGE_WEIGHT_TYPE: ATT
NODE_COORD_SECTION
1 40.14 43.77
2 41.15 49.21
3 40.32 48.59
4 34.91 48.76
5 42.42 28.84
6 22.2 20.03
