Traveling Salesman Problem/TSP_generados/Aleatorio1621103259_6.opt.tour
NAME: Aleatorio1621103259_6.opt.tour
COMMENT: Optimal solution for Aleatorio1621103259_6 (80.55653821406494)
TYPE: TOUR
DIMENSION: 6
TOUR_SECTION
1 2 3 4 6 5
-1
EOF
